40
1 0 5
2 0 3
2 1 2
3 0 4
3 1 13
3 2 9
4 0 8
4 1 11
4 2 9
4 3 10
5 0 5
5 1 8
5 2 9
5 3 12
5 4 7
6 0 8
6 1 9
6 2 5
6 3 1
6 4 19
6 5 19
7 0 5
7 1 15
7 2 10
7 3 7
7 4 11
7 5 13
7 6 13
8 0 7
8 1 16
8 2 16
8 3 19
8 4 5
8 5 1
8 6 18
8 7 5
9 0 19
9 1 17
9 2 8
9 3 12
9 4 13
9 5 3
9 6 16
9 7 10
9 8 9
10 0 6
10 1 9
10 2 19
10 3 5
10 4 7
10 5 12
10 6 3
10 7 6
10 8 6
10 9 20
11 0 10
11 1 3
11 2 1
11 3 18
11 4 15
11 5 1
11 6 4
11 7 13
11 8 10
11 9 7
11 10 15
12 0 17
12 1 11
12 2 11
12 3 5
12 4 4
12 5 3
12 6 2
12 7 2
12 8 20
12 9 19
12 10 9
12 11 1
13 0 6
13 1 8
13 2 3
13 3 8
13 4 2
13 5 19
13 6 10
13 7 3
13 8 2
13 9 20
13 10 14
13 11 10
13 12 14
14 0 14
14 1 18
14 2 17
14 3 9
14 4 2
14 5 20
14 6 18
14 7 3
14 8 14
14 9 15
14 10 13
14 11 1
14 12 8
14 13 1
15 0 9
15 1 11
15 2 11
15 3 13
15 4 16
15 5 7
15 6 12
15 7 13
15 8 15
15 9 12
15 10 10
15 11 15
15 12 2
15 13 10
15 14 9
16 0 10
16 1 2
16 2 16
16 3 18
16 4 14
16 5 9
16 6 7
16 7 2
16 8 1
16 9 16
16 10 8
16 11 18
16 12 14
16 13 5
16 14 12
16 15 19
17 0 19
17 1 12
17 2 14
17 3 9
17 4 8
17 5 9
17 6 8
17 7 5
17 8 9
17 9 18
17 10 3
17 11 9
17 12 2
17 13 12
17 14 8
17 15 12
17 16 11
18 0 11
18 1 17
18 2 16
18 3 10
18 4 17
18 5 17
18 6 8
18 7 14
18 8 1
18 9 12
18 10 11
18 11 3
18 12 9
18 13 19
18 14 9
18 15 14
18 16 13
18 17 9
19 0 20
19 1 6
19 2 8
19 3 3
19 4 6
19 5 15
19 6 13
19 7 9
19 8 4
19 9 20
19 10 14
19 11 18
19 12 15
19 13 2
19 14 11
19 15 13
19 16 15
19 17 7
19 18 11
20 0 2
20 1 17
20 2 10
20 3 16
20 4 20
20 5 8
20 6 10
20 7 9
20 8 6
20 9 15
20 10 6
20 11 19
20 12 3
20 13 13
20 14 19
20 15 18
20 16 7
20 17 7
20 18 16
20 19 10
21 0 18
21 1 8
21 2 15
21 3 6
21 4 14
21 5 3
21 6 9
21 7 3
21 8 19
21 9 18
21 10 8
21 11 2
21 12 15
21 13 14
21 14 18
21 15 3
21 16 20
21 17 7
21 18 12
21 19 11
21 20 4
22 0 8
22 1 19
22 2 9
22 3 12
22 4 17
22 5 20
22 6 10
22 7 12
22 8 2
22 9 19
22 10 5
22 11 14
22 12 6
22 13 16
22 14 15
22 15 3
22 16 11
22 17 1
22 18 5
22 19 6
22 20 3
22 21 14
23 0 12
23 1 12
23 2 18
23 3 12
23 4 11
23 5 3
23 6 9
23 7 15
23 8 13
23 9 20
23 10 3
23 11 17
23 12 1
23 13 17
23 14 1
23 15 18
23 16 7
23 17 6
23 18 15
23 19 10
23 20 4
23 21 7
23 22 4
24 0 2
24 1 4
24 2 3
24 3 11
24 4 7
24 5 19
24 6 20
24 7 20
24 8 4
24 9 19
24 10 15
24 11 14
24 12 4
24 13 8
24 14 16
24 15 9
24 16 9
24 17 14
24 18 6
24 19 6
24 20 2
24 21 2
24 22 3
24 23 8
25 0 19
25 1 14
25 2 10
25 3 5
25 4 16
25 5 16
25 6 18
25 7 17
25 8 19
25 9 17
25 10 19
25 11 19
25 12 11
25 13 17
25 14 1
25 15 10
25 16 10
25 17 6
25 18 11
25 19 15
25 20 1
25 21 2
25 22 7
25 23 9
25 24 13
26 0 19
26 1 5
26 2 19
26 3 11
26 4 13
26 5 18
26 6 19
26 7 2
26 8 5
26 9 19
26 10 19
26 11 18
26 12 15
26 13 15
26 14 15
26 15 14
26 16 11
26 17 1
26 18 2
26 19 17
26 20 13
26 21 18
26 22 3
26 23 17
26 24 12
26 25 5
27 0 18
27 1 7
27 2 17
27 3 17
27 4 16
27 5 3
27 6 8
27 7 1
27 8 14
27 9 20
27 10 2
27 11 11
27 12 4
27 13 18
27 14 14
27 15 15
27 16 19
27 17 12
27 18 13
27 19 10
27 20 14
27 21 16
27 22 4
27 23 8
27 24 11
27 25 17
27 26 9
28 0 12
28 1 15
28 2 2
28 3 15
28 4 3
28 5 4
28 6 20
28 7 15
28 8 3
28 9 2
28 10 1
28 11 7
28 12 9
28 13 16
28 14 14
28 15 7
28 16 6
28 17 9
28 18 11
28 19 18
28 20 10
28 21 5
28 22 4
28 23 5
28 24 17
28 25 4
28 26 13
28 27 20
29 0 18
29 1 4
29 2 1
29 3 3
29 4 10
29 5 8
29 6 12
29 7 5
29 8 8
29 9 14
29 10 8
29 11 7
29 12 14
29 13 1
29 14 2
29 15 11
29 16 17
29 17 13
29 18 11
29 19 8
29 20 8
29 21 3
29 22 8
29 23 10
29 24 2
29 25 11
29 26 15
29 27 20
29 28 12
30 0 14
30 1 12
30 2 1
30 3 10
30 4 17
30 5 4
30 6 17
30 7 5
30 8 6
30 9 20
30 10 9
30 11 16
30 12 10
30 13 9
30 14 1
30 15 7
30 16 4
30 17 3
30 18 19
30 19 20
30 20 6
30 21 17
30 22 12
30 23 13
30 24 8
30 25 7
30 26 4
30 27 15
30 28 8
30 29 11
31 0 6
31 1 10
31 2 4
31 3 17
31 4 10
31 5 4
31 6 10
31 7 13
31 8 8
31 9 13
31 10 18
31 11 4
31 12 20
31 13 20
31 14 7
31 15 9
31 16 9
31 17 9
31 18 7
31 19 13
31 20 15
31 21 4
31 22 12
31 23 6
31 24 6
31 25 11
31 26 7
31 27 8
31 28 4
31 29 11
31 30 12
32 0 7
32 1 3
32 2 5
32 3 11
32 4 3
32 5 6
32 6 16
32 7 19
32 8 19
32 9 12
32 10 12
32 11 5
32 12 7
32 13 7
32 14 3
32 15 1
32 16 20
32 17 16
32 18 12
32 19 16
32 20 15
32 21 20
32 22 1
32 23 1
32 24 17
32 25 18
32 26 3
32 27 10
32 28 15
32 29 15
32 30 17
32 31 15
33 0 1
33 1 3
33 2 3
33 3 17
33 4 20
33 5 5
33 6 15
33 7 18
33 8 18
33 9 12
33 10 1
33 11 14
33 12 13
33 13 20
33 14 16
33 15 17
33 16 18
33 17 8
33 18 15
33 19 15
33 20 3
33 21 1
33 22 6
33 23 12
33 24 12
33 25 11
33 26 1
33 27 5
33 28 12
33 29 4
33 30 18
33 31 12
33 32 15
34 0 7
34 1 7
34 2 18
34 3 6
34 4 14
34 5 8
34 6 14
34 7 8
34 8 13
34 9 16
34 10 1
34 11 6
34 12 19
34 13 2
34 14 16
34 15 20
34 16 1
34 17 16
34 18 19
34 19 2
34 20 15
34 21 16
34 22 12
34 23 17
34 24 8
34 25 20
34 26 3
34 27 3
34 28 17
34 29 14
34 30 8
34 31 12
34 32 8
34 33 8
35 0 12
35 1 9
35 2 16
35 3 9
35 4 10
35 5 10
35 6 20
35 7 10
35 8 1
35 9 7
35 10 4
35 11 5
35 12 4
35 13 4
35 14 7
35 15 17
35 16 16
35 17 1
35 18 2
35 19 11
35 20 20
35 21 15
35 22 3
35 23 3
35 24 11
35 25 6
35 26 20
35 27 2
35 28 6
35 29 15
35 30 19
35 31 11
35 32 5
35 33 3
35 34 19
36 0 4
36 1 16
36 2 1
36 3 15
36 4 9
36 5 16
36 6 15
36 7 1
36 8 17
36 9 20
36 10 7
36 11 3
36 12 18
36 13 20
36 14 17
36 15 10
36 16 5
36 17 13
36 18 8
36 19 6
36 20 15
36 21 13
36 22 17
36 23 11
36 24 11
36 25 17
36 26 5
36 27 5
36 28 5
36 29 5
36 30 7
36 31 2
36 32 6
36 33 13
36 34 17
36 35 20
37 0 13
37 1 3
37 2 1
37 3 12
37 4 11
37 5 4
37 6 2
37 7 1
37 8 14
37 9 15
37 10 12
37 11 4
37 12 15
37 13 16
37 14 13
37 15 12
37 16 6
37 17 6
37 18 6
37 19 6
37 20 2
37 21 7
37 22 15
37 23 5
37 24 7
37 25 2
37 26 3
37 27 7
37 28 13
37 29 9
37 30 8
37 31 5
37 32 11
37 33 2
37 34 11
37 35 20
37 36 19
38 0 4
38 1 15
38 2 13
38 3 17
38 4 8
38 5 7
38 6 14
38 7 7
38 8 11
38 9 4
38 10 11
38 11 20
38 12 20
38 13 12
38 14 10
38 15 5
38 16 7
38 17 15
38 18 6
38 19 19
38 20 3
38 21 12
38 22 5
38 23 9
38 24 18
38 25 16
38 26 1
38 27 3
38 28 5
38 29 19
38 30 1
38 31 13
38 32 7
38 33 8
38 34 2
38 35 13
38 36 11
38 37 4
39 0 2
39 1 4
39 2 6
39 3 4
39 4 15
39 5 3
39 6 15
39 7 4
39 8 1
39 9 17
39 10 15
39 11 6
39 12 9
39 13 4
39 14 16
39 15 17
39 16 3
39 17 18
39 18 14
39 19 18
39 20 2
39 21 13
39 22 2
39 23 8
39 24 9
39 25 1
39 26 5
39 27 11
39 28 9
39 29 16
39 30 16
39 31 3
39 32 15
39 33 17
39 34 19
39 35 8
39 36 3
39 37 16
39 38 20
